Optimal - objective value 100.00000000
     49 z_0_0_4_8                1                       0
     75 z_0_1_2_1                1                       0
    101 z_0_1_4_10               1                     7.5
    141 z_0_2_3_10               1                       0
    183 z_0_4_3_6                1                     2.5
    221 z_1_0_2_0                1                     2.5
    250 z_1_0_4_10               1                      -5
    281 z_1_1_2_8                1                      -4
    296 z_1_1_4_6                1                      -4
    314 z_1_2_1_4                1                       0
    330 z_1_2_3_0                1                       0
    372 z_1_3_3_7                1                     -10
    382 z_1_3_4_8                1                    -2.5
    414 z_1_4_2_10               1                    1.25
    417 z_1_4_3_2                1                       0
    466 z_2_0_2_7                1                    -2.5
    478 z_2_0_4_0                1                       0
    521 z_2_1_2_10               1                       0
    554 z_2_2_1_6                1         -13.3333333333333
    569 z_2_2_3_1                1         -3.33333333333333
    604 z_2_3_3_1                1                       0
    613 z_2_3_4_1                1                       0
    645 z_2_4_2_3                1                   -1.25
    656 z_2_4_3_3                1                   -1.25
    706 z_3_0_2_9                1                     2.5
    717 z_3_0_4_1                1                     2.5
    749 z_3_1_2_0                1                      -2
    774 z_3_1_4_8                1                    -1.5
    794 z_3_2_1_8                1                       0
    814 z_3_2_3_8                1                       0
    841 z_3_3_3_0                1                    -2.5
    860 z_3_3_4_10               1                       0
    887 z_3_4_2_7                1                       0
    901 z_3_4_3_10               1                       0
    915 w_0_2                    1                       0
    917 w_0_4                    1                      10
    920 w_1_2                    1                      10
    922 w_1_4                    1                       0
    924 w_2_1                    1                      10
    926 w_2_3                    1                       0
    931 w_3_3                    1                      10
    932 w_3_4                    1                       0
    935 w_4_2                    1                    8.75
    936 w_4_3                    1                     7.5
    950 o_0_2_0    1.00000000000081                       0
    951 o_0_2_1    1.00000000000081                       0
    952 o_0_2_2                  1                       0
    953 o_0_2_3    1.00000000000181                       0
    954 o_0_2_4    1.00000000000081                       0
    962 o_0_4_0    1.00000000000027                       0
    963 o_0_4_1    0.9999999999995                       0
    964 o_0_4_2    0.9999999999995                       0
    965 o_0_4_3                  1                       0
    966 o_0_4_4                  1                       0
    967 o_0_4_5                  1                       0
    980 o_1_2_0     1.000000000001                       0
    981 o_1_2_1     1.000000000001                       0
    982 o_1_2_2                  1                       0
    983 o_1_2_3                  1                       0
    984 o_1_2_4                  1                       0
    985 o_1_2_5                  1                       0
    992 o_1_4_0                  1                       0
    993 o_1_4_1                  1                       0
    994 o_1_4_2                  1                       0
    995 o_1_4_3                  1                       0
    996 o_1_4_4                  1                       0
    997 o_1_4_5                  1                       0
   1004 o_2_1_0                  1                       0
   1005 o_2_1_1                  1                       0
   1006 o_2_1_2                  1                       0
   1007 o_2_1_3                  1                       0
   1008 o_2_1_4                  1                       0
   1016 o_2_3_0                  1                       0
   1017 o_2_3_1    0.999999999999666                       0
   1018 o_2_3_2    0.99999999999925                       0
   1019 o_2_3_3    0.999999999999417                       0
   1020 o_2_3_4    1.00000000000017                       0
   1021 o_2_3_5                  1                       0
   1047 o_3_3_1                  1                       0
   1048 o_3_3_2                  1                       0
   1049 o_3_3_3                  1                       0
   1050 o_3_3_4                  1                       0
   1053 o_3_4_1     1.000000000001                       0
   1054 o_3_4_2    0.99999999999975                       0
   1055 o_3_4_3    0.99999999999975                       0
   1056 o_3_4_4    0.99999999999975                       0
   1057 o_3_4_5    0.99999999999975                       0
   1071 o_4_2_1    0.999999999999266                       0
   1072 o_4_2_2    1.00000000000027                       0
   1073 o_4_2_3     1.000000000001                       0
   1074 o_4_2_4                  1                       0
   1075 o_4_2_5                  1                       0
   1076 o_4_3_0                  1                       0
   1077 o_4_3_1                  1                       0
   1078 o_4_3_2     1.000000000001                       0
   1079 o_4_3_3     1.000000000001                       0
   1080 o_4_3_4                  1                       0
   1081 o_4_3_5     1.000000000001                       0
   1101 e_0_2_1                  1                       0
   1106 e_0_3_0                  1                       0
   1107 e_0_3_1                  1                       0
   1110 e_0_3_4    1.00000000000117                       0
   1111 e_0_3_5                  1                       0
   1114 e_0_4_2                  1                       0
   1115 e_0_4_3                  1                       0
   1116 e_0_4_4                  1                       0
   1117 e_0_4_5                  1                       0
   1128 e_1_1_4                  1                       0
   1130 e_1_2_0                  1                       0
   1132 e_1_2_2                  1                       0
   1133 e_1_2_3                  1                       0
   1134 e_1_2_4                  1                       0
   1135 e_1_2_5                  1                       0
   1136 e_1_3_0                  1                       0
   1138 e_1_3_2    0.999999999999192                       0
   1139 e_1_3_3                  1                       0
   1140 e_1_3_4                  1                       0
   1142 e_1_4_0                  1                       0
   1143 e_1_4_1                  1                       0
   1144 e_1_4_2                  1                    -2.5
   1145 e_1_4_3                  1                       0
   1146 e_1_4_4                  1                       0
   1147 e_1_4_5                  1                       0
   1154 e_2_1_0                  1                       0
   1155 e_2_1_1                  1                       0
   1161 e_2_2_1    1.00000000000107                       0
   1162 e_2_2_2    1.00000000000027                    -2.5
   1163 e_2_2_3                  1                       0
   1164 e_2_2_4                  1                    -2.5
   1165 e_2_2_5                  1                       0
   1167 e_2_3_1                  1                       0
   1168 e_2_3_2                  1                       0
   1169 e_2_3_3                  1                       0
   1172 e_2_4_0                  1                    -2.5
   1173 e_2_4_1    0.999999999999734                       0
   1186 e_3_1_2                  1                       0
   1187 e_3_1_3                  1                       0
   1190 e_3_2_0                  1                       0
   1191 e_3_2_1                  1                       0
   1192 e_3_2_2                  1                       0
   1193 e_3_2_3     1.000000000001                    -2.5
   1194 e_3_2_4                  1                       0
   1197 e_3_3_1                  1                       0
   1198 e_3_3_2    0.99999999999925                       0
   1199 e_3_3_3    0.99999999999925                       0
   1200 e_3_3_4                  1                       0
   1201 e_3_3_5                  1                       0
   1203 e_3_4_1                  1                      -5
   1204 e_3_4_2                  1                       0
   1205 e_3_4_3                  1                       0
   1206 e_3_4_4                  1                       0
   1207 e_3_4_5                  1                       0
   1233 af_0_2_0                 1                       0
   1234 bf_0_2_1                 1                       0
   1235 af_0_2_1                 1                       0
   1236 bf_0_2_2    0.999999999999                       0
   1237 af_0_2_2    1.000000000001                       0
   1238 bf_0_2_3                 1                       0
   1239 af_0_2_3                 1                       0
   1240 bf_0_2_4                 1                       0
   1242 bf_0_2_5   1.00000000000081                       0
   1257 af_0_4_0   0.9999999999995                       0
   1258 bf_0_4_1    1.000000000001                       0
   1259 af_0_4_1                 1                       0
   1260 bf_0_4_2                 1                       0
   1261 af_0_4_2                 1                       0
   1262 bf_0_4_3                 1                       0
   1263 af_0_4_3    1.000000000001                       0
   1264 bf_0_4_4    0.999999999999                       0
   1265 af_0_4_4                 1                       0
   1266 bf_0_4_5    0.999999999999                       0
   1293 af_1_2_0   0.999999999995759                       0
   1294 bf_1_2_1                 1                       0
   1295 af_1_2_1   0.999999999997759                       0
   1296 bf_1_2_2                 1                       0
   1297 af_1_2_2                 1                       0
   1298 bf_1_2_3   0.999999999996759                       0
   1299 af_1_2_3                 1                       0
   1300 bf_1_2_4   0.999999999996759                       0
   1301 af_1_2_4                 1                       0
   1302 bf_1_2_5                 1                       0
   1317 af_1_4_0                 1                       0
   1318 bf_1_4_1                 1                       0
   1319 af_1_4_1                 1                       0
   1320 bf_1_4_2    0.999999999999                       0
   1321 af_1_4_2                 1                       0
   1322 bf_1_4_3                 1                       0
   1323 af_1_4_3                 1                       0
   1324 bf_1_4_4                 1                       0
   1325 af_1_4_4                 1                       0
   1326 bf_1_4_5                 1                       0
   1341 af_2_1_0                 1                       0
   1342 bf_2_1_1                 1                       0
   1343 af_2_1_1                 1                       0
   1344 bf_2_1_2                 1                       0
   1345 af_2_1_2                 1                       0
   1346 bf_2_1_3                 1                       0
   1347 af_2_1_3                 1                       0
   1348 bf_2_1_4                 1                       0
   1350 bf_2_1_5                 1                       0
   1365 af_2_3_0   0.999999999999666                       0
   1366 bf_2_3_1    1.000000000001                       0
   1367 af_2_3_1   0.99999999999925                       0
   1368 bf_2_3_2                 1                       0
   1369 af_2_3_2   0.999999999999417                       0
   1370 bf_2_3_3                 1                       0
   1371 af_2_3_3                 1                       0
   1372 bf_2_3_4    1.000000000001                       0
   1373 af_2_3_4                 1                       0
   1374 bf_2_3_5                 1                       0
   1425 af_3_3_0                 1                       0
   1427 af_3_3_1    0.999999999997                       0
   1428 bf_3_3_2    1.000000000001                       0
   1429 af_3_3_2    0.999999999999                       0
   1430 bf_3_3_3    0.999999999999                       0
   1431 af_3_3_3                 1                       0
   1432 bf_3_3_4    0.999999999999                       0
   1434 bf_3_3_5    0.999999999999                       0
   1437 af_3_4_0                 1                       0
   1439 af_3_4_1   0.99999999999875                       0
   1440 bf_3_4_2                 1                       0
   1441 af_3_4_2   0.99999999999975                       0
   1442 bf_3_4_3                 1                       0
   1443 af_3_4_3   0.99999999999875                       0
   1444 bf_3_4_4    0.999999999999                       0
   1445 af_3_4_4                 1                       0
   1446 bf_3_4_5                 1                       0
   1473 af_4_2_0                 1                       0
   1475 af_4_2_1                 1                       0
   1476 bf_4_2_2                 1                       0
   1477 af_4_2_2    0.999999999999                       0
   1478 bf_4_2_3    0.999999999999                       0
   1479 af_4_2_3                 1                       0
   1480 bf_4_2_4                 1                       0
   1481 af_4_2_4                 1                       0
   1482 bf_4_2_5    0.999999999999                       0
   1485 af_4_3_0                 1                       0
   1486 bf_4_3_1                 1                       0
   1487 af_4_3_1    0.999999999999                       0
   1488 bf_4_3_2    0.999999999999                       0
   1489 af_4_3_2                 1                       0
   1490 bf_4_3_3    1.000000000001                       0
   1491 af_4_3_3    0.999999999999                       0
   1492 bf_4_3_4                 1                       0
   1493 af_4_3_4                 1                       0
   1494 bf_4_3_5                 1                       0
